proyfinal/src/viki/013/experimentInOfficeAgust.take6.output/61aa0f63-371c-4508-bfe0-ed8233a2d644.als.dat
{'cnf.clauses': '118081',
 'cnf.totvars': '69608',
 'conflict literals': '8',
 'conflicts': '6',
 'decisions': '1318',
 'memused.mb': '15.75',
 'outcome': 'UNSAT',
 'propagations': '21281',
 'restarts': '1',
 'solver.msecs': 30,
 'task.msecs': 79}
