proyfinal/src/viki/013/experimentInOfficeAgust.take6.output/61aa0f63-371c-4508-bfe0-ed8233a2d644.als.out
Reading from standard input... Use '--help' for help.
============================[ Problem Statistics ]=============================
|                                                                             |
|  Number of variables:         69608                                         |
|  Number of clauses:          118081                                         |
|  Parse time:                   0.02 s                                       |
|                                                                             |
============================[ Search Statistics ]==============================
| Conflicts |          ORIGINAL         |          LEARNT          | Progress |
|           |    Vars  Clauses Literals |    Limit  Clauses Lit/Cl |          |
===============================================================================
===============================================================================
restarts              : 1
conflicts             : 6              (198 /sec)
decisions             : 1318           (0.00 % random) (43577 /sec)
propagations          : 21281          (703620 /sec)
conflict literals     : 8              (0.00 % deleted)
Memory used           : 15.75 MB
CPU time              : 0.030245 s

UNSATISFIABLE
